Reading model...
...model read.
creating competitive generators file...
...competitive generators recorded.
Loading data...
.. real-time data read.
Compiling instance...
...instance created.
Creating Offer Mitigation (model will solve as dispatch if TRUE)...
NOTE: storage offers will not be mitigated
...storage offer mitigation file created
Converting model to MPEC...
...converted
NOTE: initial MIP solve with only storage competitive to get feasible solution
Solving...

Welcome to IBM(R) ILOG(R) CPLEX(R) Interactive Optimizer 12.9.0.0
  with Simplex, Mixed Integer & Barrier Optimizers
5725-A06 5725-A29 5724-Y48 5724-Y49 5724-Y54 5724-Y55 5655-Y21
Copyright IBM Corp. 1988, 2019.  All Rights Reserved.

Type 'help' for a list of available commands.
Type 'help' followed by a command name for more
information on commands.

CPLEX> Logfile 'cplex.log' closed.
Logfile 'C:\Users\llavin\Desktop\test85\logs\tmphulpvqf2.cplex.log' open.
CPLEX> New value for parallel optimization mode: -1
CPLEX> New value for mixed integer optimality gap tolerance: 0.05
CPLEX> New value for deterministic time limit in ticks: 100000
CPLEX> Problem 'C:\Users\llavin\Desktop\test85\logs\tmp_xabjb5g.pyomo.lp' read.
Read time = 0.52 sec. (27.86 ticks)
CPLEX> Problem name         : C:\Users\llavin\Desktop\test85\logs\tmp_xabjb5g.pyomo.lp
Objective sense      : Maximize
Variables            :  107779  [Nneg: 1,  Box: 44054,  Free: 8928,
                                 Binary: 54796]
Objective nonzeros   :   18537
Linear constraints   :  246995  [Less: 82866,  Greater: 118424,  Equal: 45705]
  Nonzeros           :  581844
  RHS nonzeros       :  135654

Variables            : Min LB: -5000.000        Max UB: 1000000.       
Objective nonzeros   : Min   : 0.008333333      Max   : 2500.000       
Linear constraints   :
  Nonzeros           : Min   : 0.008333333      Max   : 1000000.       
  RHS nonzeros       : Min   : 0.008333333      Max   : 1000000.       
CPLEX> CPXPARAM_Parallel                                -1
CPXPARAM_DetTimeLimit                            100000
CPXPARAM_MIP_Tolerances_MIPGap                   0.050000000000000003
Tried aggregator 3 times.
MIP Presolve eliminated 176222 rows and 36719 columns.
MIP Presolve added 7116 rows and 0 columns.
MIP Presolve modified 50838 coefficients.
Aggregator did 26063 substitutions.
Reduced MIP has 51826 rows, 44141 columns, and 142316 nonzeros.
Reduced MIP has 17485 binaries, 0 generals, 0 SOSs, and 0 indicators.
Presolve time = 0.58 sec. (337.60 ticks)
Probing fixed 894 vars, tightened 7949 bounds.
Probing time = 0.38 sec. (14.82 ticks)
Tried aggregator 2 times.
MIP Presolve eliminated 2034 rows and 1820 columns.
MIP Presolve modified 6510 coefficients.
Aggregator did 48 substitutions.
Reduced MIP has 49744 rows, 42273 columns, and 136244 nonzeros.
Reduced MIP has 16579 binaries, 0 generals, 0 SOSs, and 0 indicators.
Presolve time = 0.28 sec. (247.17 ticks)
Probing fixed 0 vars, tightened 188 bounds.
Probing time = 0.53 sec. (16.01 ticks)
Clique table members: 86542.
MIP emphasis: balance optimality and feasibility.
MIP search method: dynamic search.
Parallel mode: opportunistic, using up to 32 threads.
Root relaxation solution time = 1.05 sec. (1920.12 ticks)

        Nodes                                         Cuts/
   Node  Left     Objective  IInf  Best Integer    Best Bound    ItCnt     Gap

      0     0      -36.8370     1                    -36.8370     9167         
*     0+    0                          -36.8370      -36.8370             0.00%
      0     0        cutoff            -36.8370      -36.8370     9167    0.00%
Elapsed time = 3.53 sec. (2991.13 ticks, tree = 0.01 MB, solutions = 1)

Root node processing (before b&c):
  Real time             =    3.56 sec. (2995.05 ticks)
Parallel b&c, 32 threads:
  Real time             =    0.00 sec. (0.00 ticks)
  Sync time (average)   =    0.00 sec.
  Wait time (average)   =    0.00 sec.
                          ------------
Total (root+branch&cut) =    3.56 sec. (2995.05 ticks)

Solution pool: 1 solution saved.

MIP - Integer optimal solution:  Objective = -3.6837012941e+01
Solution time =    3.59 sec.  Iterations = 9167  Nodes = 0
Deterministic time = 2995.36 ticks  (833.43 ticks/sec)

CPLEX> Incumbent solution written to file 'C:\Users\llavin\Desktop\test85\logs\tmp_d8o12kl.cplex.sol'.
CPLEX> NOTE: no warmstart specified for MIP iteration, default behavior is true
NOTE: resolving with all competitive generators using storage-only solution to warmstart
Solving...

Welcome to IBM(R) ILOG(R) CPLEX(R) Interactive Optimizer 12.9.0.0
  with Simplex, Mixed Integer & Barrier Optimizers
5725-A06 5725-A29 5724-Y48 5724-Y49 5724-Y54 5724-Y55 5655-Y21
Copyright IBM Corp. 1988, 2019.  All Rights Reserved.

Type 'help' for a list of available commands.
Type 'help' followed by a command name for more
information on commands.

CPLEX> Logfile 'cplex.log' closed.
Logfile 'C:\Users\llavin\Desktop\test85\logs\tmpzuct7lfn.cplex.log' open.
CPLEX> New value for parallel optimization mode: -1
CPLEX> New value for mixed integer optimality gap tolerance: 0.05
CPLEX> New value for deterministic time limit in ticks: 100000
CPLEX> Problem 'C:\Users\llavin\Desktop\test85\logs\tmpd61jey_k.pyomo.lp' read.
Read time = 0.53 sec. (27.91 ticks)
CPLEX> MIP start file 'C:\Users\llavin\Desktop\test85\logs\tmp7i8eo9aw.cplex.mst' read.
CPLEX> Problem name         : C:\Users\llavin\Desktop\test85\logs\tmpd61jey_k.pyomo.lp
Objective sense      : Maximize
Variables            :  109219  [Nneg: 1,  Box: 45494,  Free: 8928,
                                 Binary: 54796]
Objective nonzeros   :   19929
Linear constraints   :  246995  [Less: 82866,  Greater: 118424,  Equal: 45705]
  Nonzeros           :  581844
  RHS nonzeros       :  135654

Variables            : Min LB: -5000.000        Max UB: 1000000.       
Objective nonzeros   : Min   : 0.008333333      Max   : 2500.000       
Linear constraints   :
  Nonzeros           : Min   : 0.008333333      Max   : 1000000.       
  RHS nonzeros       : Min   : 0.008333333      Max   : 1000000.       
CPLEX> CPXPARAM_Parallel                                -1
CPXPARAM_DetTimeLimit                            100000
CPXPARAM_MIP_Tolerances_MIPGap                   0.050000000000000003
1 of 1 MIP starts provided solutions.
MIP start 'm1' defined initial solution with objective -36.8370.
Tried aggregator 3 times.
MIP Presolve eliminated 176222 rows and 38159 columns.
MIP Presolve added 7116 rows and 0 columns.
MIP Presolve modified 50838 coefficients.
Aggregator did 26063 substitutions.
Reduced MIP has 51826 rows, 44141 columns, and 142316 nonzeros.
Reduced MIP has 17485 binaries, 0 generals, 0 SOSs, and 0 indicators.
Presolve time = 0.59 sec. (338.32 ticks)
Probing fixed 894 vars, tightened 7949 bounds.
Probing time = 0.41 sec. (14.82 ticks)
Tried aggregator 2 times.
MIP Presolve eliminated 2034 rows and 1820 columns.
MIP Presolve modified 6510 coefficients.
Aggregator did 48 substitutions.
Reduced MIP has 49744 rows, 42273 columns, and 136244 nonzeros.
Reduced MIP has 16579 binaries, 0 generals, 0 SOSs, and 0 indicators.
Presolve time = 0.28 sec. (247.35 ticks)
Probing fixed 0 vars, tightened 169 bounds.
Probing time = 0.59 sec. (16.08 ticks)
Clique table members: 86207.
MIP emphasis: balance optimality and feasibility.
MIP search method: dynamic search.
Parallel mode: opportunistic, using up to 32 threads.
Root relaxation solution time = 1.11 sec. (2008.43 ticks)

        Nodes                                         Cuts/
   Node  Left     Objective  IInf  Best Integer    Best Bound    ItCnt     Gap

*     0+    0                          -36.8370  9297538.5337              --- 
      0     0     2716.8762   163      -36.8370     2716.8762    10207     --- 
      0     0     2716.8762   131      -36.8370     Cuts: 493    10370     --- 
*     0+    0                          -36.8370     2716.8762              --- 
      0     0     2716.8762   176      -36.8370     Cuts: 378    10552     --- 
      0     0     2716.8762    96      -36.8370     Cuts: 255    10589     --- 
      0     0     2716.8762   112      -36.8370     Cuts: 180    10649     --- 
      0     1        cutoff            -36.8370      Cuts: 28    10950     --- 
Elapsed time = 11.63 sec. (6321.07 ticks, tree = 0.02 MB, solutions = 2)
    155    45      127.1288     6      -36.8370      813.1512    11969     --- 
    326    40    infeasible            -36.8370      787.5212    12035     --- 
    388     7      989.9873    25      -36.8370      787.5212    11276     --- 
    433    44        cutoff            -36.8370      787.5212    12063     --- 

Cover cuts applied:  1
Implied bound cuts applied:  19
Flow cuts applied:  18
Mixed integer rounding cuts applied:  63
Lift and project cuts applied:  8
Gomory fractional cuts applied:  24

Root node processing (before b&c):
  Real time             =    8.08 sec. (6287.20 ticks)
Parallel b&c, 32 threads:
  Real time             =    6.95 sec. (1148.64 ticks)
  Sync time (average)   =    4.10 sec.
  Wait time (average)   =    0.00 sec.
                          ------------
Total (root+branch&cut) =   15.03 sec. (7435.84 ticks)

Solution pool: 2 solutions saved.

MIP - Integer optimal solution:  Objective = -3.6837011907e+01
Solution time =   15.06 sec.  Iterations = 13691  Nodes = 451
Deterministic time = 7436.15 ticks  (493.67 ticks/sec)

CPLEX> Incumbent solution written to file 'C:\Users\llavin\Desktop\test85\logs\tmpxnm1hlia.cplex.sol'.
CPLEX> Exporting results... 
